g3 0 1 0	# problem ex8_3_12
 120 81 1 0 81	# vars, constraints, objectives, ranges, eqns
 64 0	# nonlinear constraints, objectives
 0 0	# network constraints: nonlinear, linear
 115 0 0	# nonlinear vars in constraints, objectives, both
 0 0 0 1	# linear network variables; functions; arith, flags
 0 0 0 0 0	# discrete variables: binary, integer, nonlinear (b,c,o)
 584 1	# nonzeros in Jacobian, gradients
 0 0	# max name lengths: constraints, variables
 0 0 0 0 0	# common exprs: b,c,o,c1,o1
b
0 0 1000
0 0 1000
0 0 1000
0 0 1000
0 0 1000
0 0 10
0 0 10
0 0 10
0 0 10
0 0 10
0 0 10
0 0 10
0 0 10
0 0 10
0 0 10
0 0 10
0 0 10
0 0 10
0 0 10
0 0 10
0 0 10
0 0 10
0 0 10
0 0 10
0 0 10
0 0 1000
0 0 1000
0 0 1000
0 0 1000
0 0 1000
0 0 10
0 0 10
0 0 10
0 0 10
0 0 10
0 0 10
0 0 10
0 0 10
0 0 10
0 0 10
0 0 10
0 0 10
0 0 10
0 0 10
0 0 10
0 0 10
0 0 10
0 0 10
0 0 10
0 0 10
0 0 1000
0 0 1000
0 0 1000
0 0 1000
0 0 1000
0 0 1000
0 0 1000
0 0 1000
0 0 1000
0 0 1000
0 0 1000
0 0 1000
0 0 1000
0 0 1000
0 0 1000
0 0 1000
0 0 1000
0 0 1000
0 0 1000
0 0 1000
0 0 1000
0 0 1000
0 0 1000
0 0 1000
0 0 1000
0 0 1000
0 0 1000
0 0 1000
0 0 1000
0 0 1000
0 0 1000
0 0 10
0 0 10
0 0 10
0 0 10
0 0 10000
0 0 10000
0 0 10000
0 0 10000
0 0 10000
0 300 810
0 300 810
0 300 810
0 300 810
0 300 810
0 0 10000
0 0 10000
0 0 10000
0 0 10000
0 0 10000
0 0 10000
0 0 10000
0 0 10000
0 0 10000
0 0 10000
0 0 10000
0 0 10000
0 0 10000
0 0 10000
0 0 10000
0 0 10000
0 0 10000
0 0 10000
0 0 10000
0 0 10000
0 0 1000
0 0 1000
0 0 1000
0 0 1000
0 0 1000
x100
0 50
1 50
2 50
3 50
4 50
5 0.2
6 0.2
7 0.2
8 0.2
9 0.2
10 0.2
11 0.2
12 0.2
13 0.2
14 0.2
15 0.2
16 0.2
17 0.2
18 0.2
19 0.2
20 0.2
21 0.2
22 0.2
23 0.2
24 0.2
25 100
26 100
27 100
28 100
29 100
30 0.2
31 0.2
32 0.2
33 0.2
34 0.2
35 0.2
36 0.2
37 0.2
38 0.2
39 0.2
40 0.2
41 0.2
42 0.2
43 0.2
44 0.2
45 0.2
46 0.2
47 0.2
48 0.2
49 0.2
50 50
51 50
52 50
53 50
54 50
55 50
56 50
57 50
58 50
59 50
60 50
61 50
62 50
63 50
64 50
65 50
66 50
67 50
68 50
69 50
70 50
71 50
72 50
73 50
74 50
75 50
76 50
77 50
78 50
79 50
80 100
81 0.2
82 0.2
83 0.2
84 0.2
85 1
86 1
87 1
88 1
89 1
90 400
91 400
92 400
93 400
94 400
115 50
116 50
117 50
118 50
119 50
r
4 0
4 0
4 0
4 0
4 0
4 0
4 0
4 0
4 0
4 0
4 0
4 0
4 0
4 0
4 0
4 0
4 0
4 0
4 0
4 0
4 0
4 0
4 0
4 0
4 0
4 0
4 0
4 0
4 0
4 0
4 0
4 0
4 0
4 0
4 0
4 0
4 0
4 0
4 0
4 0
4 0
4 0
4 0
4 0
4 0
4 0
4 0
4 0
4 0
4 0
4 0
4 0
4 0
4 0
4 0
4 0
4 0
4 0
4 0
4 0
4 0
4 0
4 0
4 0
4 -100
4 0
4 0
4 0
4 0
4 0
4 0
4 0
4 0
4 0
4 0
4 0
4 0
4 0
4 0
4 0
4 0
C0
o16
o54
6
o16
o2
v5
v0
o2
v30
v50
o2
v34
v55
o2
v38
v60
o2
v42
v65
o2
v46
v70
C1
o16
o54
6
o16
o2
v6
v0
o2
v31
v50
o2
v35
v55
o2
v39
v60
o2
v43
v65
o2
v47
v70
C2
o16
o54
6
o16
o2
v7
v0
o2
v32
v50
o2
v36
v55
o2
v40
v60
o2
v44
v65
o2
v48
v70
C3
o16
o54
6
o16
o2
v8
v0
o2
v33
v50
o2
v37
v55
o2
v41
v60
o2
v45
v65
o2
v49
v70
C4
o16
o54
6
o16
o2
v9
v1
o2
v30
v51
o2
v34
v56
o2
v38
v61
o2
v42
v66
o2
v46
v71
C5
o16
o54
6
o16
o2
v10
v1
o2
v31
v51
o2
v35
v56
o2
v39
v61
o2
v43
v66
o2
v47
v71
C6
o16
o54
6
o16
o2
v11
v1
o2
v32
v51
o2
v36
v56
o2
v40
v61
o2
v44
v66
o2
v48
v71
C7
o16
o54
6
o16
o2
v12
v1
o2
v33
v51
o2
v37
v56
o2
v41
v61
o2
v45
v66
o2
v49
v71
C8
o16
o54
6
o16
o2
v13
v2
o2
v30
v52
o2
v34
v57
o2
v38
v62
o2
v42
v67
o2
v46
v72
C9
o16
o54
6
o16
o2
v14
v2
o2
v31
v52
o2
v35
v57
o2
v39
v62
o2
v43
v67
o2
v47
v72
C10
o16
o54
6
o16
o2
v15
v2
o2
v32
v52
o2
v36
v57
o2
v40
v62
o2
v44
v67
o2
v48
v72
C11
o16
o54
6
o16
o2
v16
v2
o2
v33
v52
o2
v37
v57
o2
v41
v62
o2
v45
v67
o2
v49
v72
C12
o16
o54
6
o16
o2
v17
v3
o2
v30
v53
o2
v34
v58
o2
v38
v63
o2
v42
v68
o2
v46
v73
C13
o16
o54
6
o16
o2
v18
v3
o2
v31
v53
o2
v35
v58
o2
v39
v63
o2
v43
v68
o2
v47
v73
C14
o16
o54
6
o16
o2
v19
v3
o2
v32
v53
o2
v36
v58
o2
v40
v63
o2
v44
v68
o2
v48
v73
C15
o16
o54
6
o16
o2
v20
v3
o2
v33
v53
o2
v37
v58
o2
v41
v63
o2
v45
v68
o2
v49
v73
C16
o16
o54
6
o16
o2
v21
v4
o2
v30
v54
o2
v34
v59
o2
v38
v64
o2
v42
v69
o2
v46
v74
C17
o16
o54
6
o16
o2
v22
v4
o2
v31
v54
o2
v35
v59
o2
v39
v64
o2
v43
v69
o2
v47
v74
C18
o16
o54
6
o16
o2
v23
v4
o2
v32
v54
o2
v36
v59
o2
v40
v64
o2
v44
v69
o2
v48
v74
C19
o16
o54
6
o16
o2
v24
v4
o2
v33
v54
o2
v37
v59
o2
v41
v64
o2
v45
v69
o2
v49
v74
C20
o54
3
o2
v30
v25
o16
o2
v5
v0
o16
o2
v85
o1
o16
v95
v96
C21
o54
3
o2
v31
v25
o16
o2
v6
v0
o16
o2
v85
o1
v95
v97
C22
o54
3
o2
v32
v25
o16
o2
v7
v0
o16
o2
v85
o1
o0
v96
v97
v98
C23
o54
3
o2
v33
v25
o16
o2
v8
v0
o16
o2
v85
v98
C24
o54
3
o2
v34
v26
o16
o2
v9
v1
o16
o2
v86
o1
o16
v99
v100
C25
o54
3
o2
v35
v26
o16
o2
v10
v1
o16
o2
v86
o1
v99
v101
C26
o54
3
o2
v36
v26
o16
o2
v11
v1
o16
o2
v86
o1
o0
v100
v101
v102
C27
o54
3
o2
v37
v26
o16
o2
v12
v1
o16
o2
v86
v102
C28
o54
3
o2
v38
v27
o16
o2
v13
v2
o16
o2
v87
o1
o16
v103
v104
C29
o54
3
o2
v39
v27
o16
o2
v14
v2
o16
o2
v87
o1
v103
v105
C30
o54
3
o2
v40
v27
o16
o2
v15
v2
o16
o2
v87
o1
o0
v104
v105
v106
C31
o54
3
o2
v41
v27
o16
o2
v16
v2
o16
o2
v87
v106
C32
o54
3
o2
v42
v28
o16
o2
v17
v3
o16
o2
v88
o1
o16
v107
v108
C33
o54
3
o2
v43
v28
o16
o2
v18
v3
o16
o2
v88
o1
v107
v109
C34
o54
3
o2
v44
v28
o16
o2
v19
v3
o16
o2
v88
o1
o0
v108
v109
v110
C35
o54
3
o2
v45
v28
o16
o2
v20
v3
o16
o2
v88
v110
C36
o54
3
o2
v46
v29
o16
o2
v21
v4
o16
o2
v89
o1
o16
v111
v112
C37
o54
3
o2
v47
v29
o16
o2
v22
v4
o16
o2
v89
o1
v111
v113
C38
o54
3
o2
v48
v29
o16
o2
v23
v4
o16
o2
v89
o1
o0
v112
v113
v114
C39
o54
3
o2
v49
v29
o16
o2
v24
v4
o16
o2
v89
v114
C40
o2
o2
n-2e+13
o44
o3
n-19124.3080020131
v90
v30
C41
o2
o2
n-2e+13
o44
o3
n-19124.3080020131
v91
v34
C42
o2
o2
n-2e+13
o44
o3
n-19124.3080020131
v92
v38
C43
o2
o2
n-2e+13
o44
o3
n-19124.3080020131
v93
v42
C44
o2
o2
n-2e+13
o44
o3
n-19124.3080020131
v94
v46
C45
o2
o2
n-2e+13
o44
o3
n-19124.3080020131
v90
v30
C46
o2
o2
n-2e+13
o44
o3
n-19124.3080020131
v91
v34
C47
o2
o2
n-2e+13
o44
o3
n-19124.3080020131
v92
v38
C48
o2
o2
n-2e+13
o44
o3
n-19124.3080020131
v93
v42
C49
o2
o2
n-2e+13
o44
o3
n-19124.3080020131
v94
v46
C50
o2
o2
n-8.15e+17
o44
o3
n-25163.5631605435
v90
v31
C51
o2
o2
n-8.15e+17
o44
o3
n-25163.5631605435
v91
v35
C52
o2
o2
n-8.15e+17
o44
o3
n-25163.5631605435
v92
v39
C53
o2
o2
n-8.15e+17
o44
o3
n-25163.5631605435
v93
v43
C54
o2
o2
n-8.15e+17
o44
o3
n-25163.5631605435
v94
v47
C55
o2
o2
n-210000
o44
o3
n-10065.4252642174
v90
v32
C56
o2
o2
n-210000
o44
o3
n-10065.4252642174
v91
v36
C57
o2
o2
n-210000
o44
o3
n-10065.4252642174
v92
v40
C58
o2
o2
n-210000
o44
o3
n-10065.4252642174
v93
v44
C59
o2
o2
n-210000
o44
o3
n-10065.4252642174
v94
v48
C60
o16
o54
6
o16
o2
v80
v81
o2
v75
v30
o2
v76
v34
o2
v77
v38
o2
v78
v42
o2
v79
v46
C61
o16
o54
6
o16
o2
v80
v82
o2
v75
v31
o2
v76
v35
o2
v77
v39
o2
v78
v43
o2
v79
v47
C62
o16
o54
6
o16
o2
v80
v83
o2
v75
v32
o2
v76
v36
o2
v77
v40
o2
v78
v44
o2
v79
v48
C63
o16
o54
6
o16
o2
v80
v84
o2
v75
v33
o2
v76
v37
o2
v77
v41
o2
v78
v45
o2
v79
v49
C64
n0
C65
n0
C66
n0
C67
n0
C68
n0
C69
n0
C70
n0
C71
n0
C72
n0
C73
n0
C74
n0
C75
n0
C76
n0
C77
n0
C78
n0
C79
n0
C80
n0
O0 0
n0
k119
10
20
30
40
50
52
54
56
58
60
62
64
66
68
70
72
74
76
78
80
82
84
86
88
90
96
102
108
114
120
129
137
145
152
161
169
177
184
193
201
209
216
225
233
241
248
257
265
273
280
286
292
298
304
310
316
322
328
334
340
346
352
358
364
370
376
382
388
394
400
406
412
418
424
430
436
442
448
454
460
465
466
467
468
469
473
477
481
485
489
493
497
501
505
509
512
515
518
521
524
527
530
533
536
539
542
545
548
551
554
557
560
563
566
569
572
575
578
581
J0 13
0 0
5 0
30 0
34 0
38 0
42 0
46 0
50 0
55 0
60 0
65 0
70 0
115 -1
J1 12
0 0
6 0
31 0
35 0
39 0
43 0
47 0
50 0
55 0
60 0
65 0
70 0
J2 12
0 0
7 0
32 0
36 0
40 0
44 0
48 0
50 0
55 0
60 0
65 0
70 0
J3 12
0 0
8 0
33 0
37 0
41 0
45 0
49 0
50 0
55 0
60 0
65 0
70 0
J4 13
1 0
9 0
30 0
34 0
38 0
42 0
46 0
51 0
56 0
61 0
66 0
71 0
116 -1
J5 12
1 0
10 0
31 0
35 0
39 0
43 0
47 0
51 0
56 0
61 0
66 0
71 0
J6 12
1 0
11 0
32 0
36 0
40 0
44 0
48 0
51 0
56 0
61 0
66 0
71 0
J7 12
1 0
12 0
33 0
37 0
41 0
45 0
49 0
51 0
56 0
61 0
66 0
71 0
J8 13
2 0
13 0
30 0
34 0
38 0
42 0
46 0
52 0
57 0
62 0
67 0
72 0
117 -1
J9 12
2 0
14 0
31 0
35 0
39 0
43 0
47 0
52 0
57 0
62 0
67 0
72 0
J10 12
2 0
15 0
32 0
36 0
40 0
44 0
48 0
52 0
57 0
62 0
67 0
72 0
J11 12
2 0
16 0
33 0
37 0
41 0
45 0
49 0
52 0
57 0
62 0
67 0
72 0
J12 13
3 0
17 0
30 0
34 0
38 0
42 0
46 0
53 0
58 0
63 0
68 0
73 0
118 -1
J13 12
3 0
18 0
31 0
35 0
39 0
43 0
47 0
53 0
58 0
63 0
68 0
73 0
J14 12
3 0
19 0
32 0
36 0
40 0
44 0
48 0
53 0
58 0
63 0
68 0
73 0
J15 12
3 0
20 0
33 0
37 0
41 0
45 0
49 0
53 0
58 0
63 0
68 0
73 0
J16 13
4 0
21 0
30 0
34 0
38 0
42 0
46 0
54 0
59 0
64 0
69 0
74 0
119 -1
J17 12
4 0
22 0
31 0
35 0
39 0
43 0
47 0
54 0
59 0
64 0
69 0
74 0
J18 12
4 0
23 0
32 0
36 0
40 0
44 0
48 0
54 0
59 0
64 0
69 0
74 0
J19 12
4 0
24 0
33 0
37 0
41 0
45 0
49 0
54 0
59 0
64 0
69 0
74 0
J20 7
0 0
5 0
25 0
30 0
85 0
95 0
96 0
J21 7
0 0
6 0
25 0
31 0
85 0
95 0
97 0
J22 8
0 0
7 0
25 0
32 0
85 0
96 0
97 0
98 0
J23 6
0 0
8 0
25 0
33 0
85 0
98 0
J24 7
1 0
9 0
26 0
34 0
86 0
99 0
100 0
J25 7
1 0
10 0
26 0
35 0
86 0
99 0
101 0
J26 8
1 0
11 0
26 0
36 0
86 0
100 0
101 0
102 0
J27 6
1 0
12 0
26 0
37 0
86 0
102 0
J28 7
2 0
13 0
27 0
38 0
87 0
103 0
104 0
J29 7
2 0
14 0
27 0
39 0
87 0
103 0
105 0
J30 8
2 0
15 0
27 0
40 0
87 0
104 0
105 0
106 0
J31 6
2 0
16 0
27 0
41 0
87 0
106 0
J32 7
3 0
17 0
28 0
42 0
88 0
107 0
108 0
J33 7
3 0
18 0
28 0
43 0
88 0
107 0
109 0
J34 8
3 0
19 0
28 0
44 0
88 0
108 0
109 0
110 0
J35 6
3 0
20 0
28 0
45 0
88 0
110 0
J36 7
4 0
21 0
29 0
46 0
89 0
111 0
112 0
J37 7
4 0
22 0
29 0
47 0
89 0
111 0
113 0
J38 8
4 0
23 0
29 0
48 0
89 0
112 0
113 0
114 0
J39 6
4 0
24 0
29 0
49 0
89 0
114 0
J40 3
30 0
90 0
95 1
J41 3
34 0
91 0
99 1
J42 3
38 0
92 0
103 1
J43 3
42 0
93 0
107 1
J44 3
46 0
94 0
111 1
J45 3
30 0
90 0
96 1
J46 3
34 0
91 0
100 1
J47 3
38 0
92 0
104 1
J48 3
42 0
93 0
108 1
J49 3
46 0
94 0
112 1
J50 3
31 0
90 0
97 1
J51 3
35 0
91 0
101 1
J52 3
39 0
92 0
105 1
J53 3
43 0
93 0
109 1
J54 3
47 0
94 0
113 1
J55 3
32 0
90 0
98 1
J56 3
36 0
91 0
102 1
J57 3
40 0
92 0
106 1
J58 3
44 0
93 0
110 1
J59 3
48 0
94 0
114 1
J60 12
30 0
34 0
38 0
42 0
46 0
75 0
76 0
77 0
78 0
79 0
80 0
81 0
J61 12
31 0
35 0
39 0
43 0
47 0
75 0
76 0
77 0
78 0
79 0
80 0
82 0
J62 12
32 0
36 0
40 0
44 0
48 0
75 0
76 0
77 0
78 0
79 0
80 0
83 0
J63 12
33 0
37 0
41 0
45 0
49 0
75 0
76 0
77 0
78 0
79 0
80 0
84 0
J64 5
115 -1
116 -1
117 -1
118 -1
119 -1
J65 7
0 1
50 -1
55 -1
60 -1
65 -1
70 -1
115 -1
J66 7
1 1
51 -1
56 -1
61 -1
66 -1
71 -1
116 -1
J67 7
2 1
52 -1
57 -1
62 -1
67 -1
72 -1
117 -1
J68 7
3 1
53 -1
58 -1
63 -1
68 -1
73 -1
118 -1
J69 7
4 1
54 -1
59 -1
64 -1
69 -1
74 -1
119 -1
J70 2
0 -1
25 1
J71 2
1 -1
26 1
J72 2
2 -1
27 1
J73 2
3 -1
28 1
J74 2
4 -1
29 1
J75 7
25 1
50 -1
51 -1
52 -1
53 -1
54 -1
75 -1
J76 7
26 1
55 -1
56 -1
57 -1
58 -1
59 -1
76 -1
J77 7
27 1
60 -1
61 -1
62 -1
63 -1
64 -1
77 -1
J78 7
28 1
65 -1
66 -1
67 -1
68 -1
69 -1
78 -1
J79 7
29 1
70 -1
71 -1
72 -1
73 -1
74 -1
79 -1
J80 6
75 -1
76 -1
77 -1
78 -1
79 -1
80 1
G0 1
83 -1
